sifdecoder -A pc64.lnx.gfo -st   AVION2

 Problem name: AVION2

 Double precision version will be formed

 The objective function uses 17 nonlinear groups
 
 There are 15 linear equality constraints
 
 There are 49 variables bounded from below and above 
 
 
 File successfully decoded
 CUTEST: tools (double precision version) compiled successfully
 CUTEst: ipopt (double precision version) compiled successfully

******************************************************************************
This program contains Ipopt, a library for large-scale nonlinear optimization.
 Ipopt is released as open source code under the Eclipse Public License (EPL).
         For more information visit http://projects.coin-or.org/Ipopt
******************************************************************************

This is Ipopt version trunk, running with linear solver ma57.

Number of nonzeros in equality constraint Jacobian...:       43
Number of nonzeros in inequality constraint Jacobian.:        0
Number of nonzeros in Lagrangian Hessian.............:      123

Total number of variables............................:       49
                     variables with only lower bounds:        0
                variables with lower and upper bounds:       49
                     variables with only upper bounds:        0
Total number of equality constraints.................:       15
Total number of inequality constraints...............:        0
        inequality constraints with only lower bounds:        0
   inequality constraints with lower and upper bounds:        0
        inequality constraints with only upper bounds:        0

iter    objective    inf_pr   inf_du lg(mu)  ||d||  lg(rg) alpha_du alpha_pr  ls
   0  9.4716578e+07 1.65e+01 4.20e+04  -1.0 0.00e+00    -  0.00e+00 0.00e+00   0
   1  9.4695358e+07 1.17e+01 2.98e+04  -1.0 3.90e+00   2.0 9.60e-01 2.91e-01f  1
   2  9.4187592e+07 1.17e+01 2.97e+04  -1.0 5.23e+03    -  3.20e-03 3.24e-03f  1
   3  9.4186916e+07 1.16e+01 2.94e+04  -1.0 3.18e+00   1.5 9.90e-01 9.03e-03f  1
   4  9.3548434e+07 1.15e+01 2.86e+04  -1.0 1.17e+04    -  9.51e-04 4.78e-03f  1
   5  9.3553967e+07 1.13e+01 2.80e+04  -1.0 1.61e+01   1.0 1.00e+00 2.29e-02h  1
   6  9.3590645e+07 8.70e+00 2.16e+04  -1.0 1.58e+01   0.6 1.00e+00 2.27e-01h  1
   7  9.3445232e+07 8.67e+00 2.08e+04  -1.0 5.18e+04    -  8.44e-04 3.62e-03f  1
   8  9.3431452e+07 8.65e+00 2.07e+04  -1.0 9.12e+04    -  2.58e-03 2.78e-03f  1
   9  9.3426266e+07 8.54e+00 3.51e+04  -1.0 2.68e+03    -  1.57e-01 1.25e-02f  1
iter    objective    inf_pr   inf_du lg(mu)  ||d||  lg(rg) alpha_du alpha_pr  ls
  10  9.3481903e+07 7.83e+00 4.73e+05  -1.0 4.03e+01   0.1 1.00e+00 8.27e-02h  1
  11  9.3824178e+07 5.58e+00 4.21e+05  -1.0 2.96e+02    -  1.04e-02 2.88e-01h  1
  12  9.3855287e+07 5.37e+00 4.09e+05  -1.0 1.15e+04    -  2.67e-02 3.66e-02h  1
  13  9.3923258e+07 4.93e+00 1.07e+05  -1.0 5.95e+01    -  1.00e+00 8.28e-02h  1
  14  9.4100755e+07 3.77e+00 8.21e+04  -1.0 1.86e+02    -  2.35e-02 2.36e-01h  1
  15  9.4118477e+07 3.65e+00 6.46e+06  -1.0 3.94e+01   1.4 1.00e+00 3.21e-02h  1
  16  9.4338595e+07 2.21e+00 1.09e+07  -1.0 4.04e+01   1.8 1.00e+00 3.93e-01h  1
  17  9.4676792e+07 2.21e-02 5.77e+06  -1.0 2.45e+01   1.4 5.96e-01 9.90e-01h  1
  18  9.4680189e+07 1.81e-04 3.97e+06  -1.0 2.45e-01   1.8 6.04e-01 9.92e-01h  1
  19  9.4680231e+07 1.36e-12 1.72e+06  -1.0 3.66e-02   1.3 6.05e-01 1.00e+00f  1
iter    objective    inf_pr   inf_du lg(mu)  ||d||  lg(rg) alpha_du alpha_pr  ls
  20  9.4680263e+07 1.36e-12 8.92e+05  -1.0 1.32e-02   1.7 6.04e-01 1.00e+00f  1
  21  9.4680321e+07 2.27e-13 2.31e+05  -1.0 5.42e-02   1.3 6.40e-01 1.00e+00f  1
  22  9.4680382e+07 3.41e-13 1.73e+05  -1.0 1.32e-01   1.7 6.29e-01 1.00e+00f  1
  23  9.4680428e+07 9.09e-13 5.86e+03  -1.0 1.30e-01   1.2 7.27e-01 1.00e+00f  1
  24  9.4680440e+07 2.27e-13 1.00e+00  -1.0 3.02e-03   2.5 1.00e+00 1.00e+00f  1
  25  9.4680220e+07 2.27e-13 6.42e+01  -2.5 1.67e-02   2.1 9.90e-01 1.00e+00f  1
  26  9.4680201e+07 4.55e-13 2.34e+00  -2.5 7.50e-03   2.5 1.00e+00 1.00e+00f  1
  27  9.4680193e+07 2.27e-13 6.83e+03  -2.5 1.60e-02   2.0 1.00e+00 6.54e-01f  1
  28  9.4680194e+07 9.09e-13 6.22e-01  -2.5 2.25e-03   2.4 1.00e+00 1.00e+00f  1
  29  9.4680186e+07 2.27e-13 2.20e+03  -3.8 6.94e-03   2.0 1.00e+00 9.01e-01f  1
iter    objective    inf_pr   inf_du lg(mu)  ||d||  lg(rg) alpha_du alpha_pr  ls
  30  9.4680185e+07 4.55e-13 6.41e-01  -3.8 2.60e-03   2.4 1.00e+00 1.00e+00f  1
  31  9.4680183e+07 9.09e-13 6.38e-01  -3.8 7.77e-03   1.9 1.00e+00 1.00e+00f  1
  32  9.4680183e+07 4.55e-13 6.37e-01  -3.8 2.91e-03   2.3 1.00e+00 1.00e+00f  1
  33  9.4680181e+07 6.82e-13 6.34e-01  -3.8 8.69e-03   1.9 1.00e+00 1.00e+00f  1
  34  9.4680180e+07 4.55e-13 6.33e-01  -3.8 3.25e-03   2.3 1.00e+00 1.00e+00f  1
  35  9.4680178e+07 1.14e-12 6.29e-01  -3.8 9.70e-03   1.8 1.00e+00 1.00e+00f  1
  36  9.4680178e+07 1.14e-12 6.28e-01  -3.8 3.63e-03   2.2 1.00e+00 1.00e+00f  1
  37  9.4680176e+07 1.36e-12 6.24e-01  -3.8 1.08e-02   1.8 1.00e+00 1.00e+00f  1
  38  9.4680175e+07 1.14e-12 6.22e-01  -3.8 4.05e-03   2.2 1.00e+00 1.00e+00f  1
  39  9.4680173e+07 1.36e-12 6.18e-01  -3.8 1.21e-02   1.7 1.00e+00 1.00e+00f  1
iter    objective    inf_pr   inf_du lg(mu)  ||d||  lg(rg) alpha_du alpha_pr  ls
  40  9.4680172e+07 4.55e-13 6.16e-01  -3.8 4.50e-03   2.1 1.00e+00 1.00e+00f  1
  41  9.4680170e+07 1.14e-13 6.10e-01  -3.8 1.34e-02   1.7 1.00e+00 1.00e+00f  1
  42  9.4680169e+07 3.41e-13 6.07e-01  -3.8 5.00e-03   2.1 1.00e+00 1.00e+00f  1
  43  9.4680167e+07 2.27e-13 5.98e-01  -3.8 1.48e-02   1.6 1.00e+00 1.00e+00f  1
  44  9.4680166e+07 2.27e-13 5.84e-01  -3.8 5.40e-03   2.0 1.00e+00 1.00e+00f  1
  45  9.4680165e+07 3.41e-13 4.77e-01  -3.8 1.32e-02   1.6 1.00e+00 2.68e-01f  1
  46  9.4680166e+07 3.41e-13 1.12e-01  -3.8 1.17e-03   2.0 1.00e+00 1.00e+00f  1
  47  9.4680165e+07 3.41e-13 1.04e-01  -3.8 9.03e-03   1.5 1.00e+00 1.00e+00f  1
  48  9.4680165e+07 6.82e-13 1.04e-01  -3.8 1.22e-03   1.9 1.00e+00 1.00e+00f  1
  49  9.4680165e+07 4.55e-13 1.04e-01  -3.8 9.21e-03   1.5 1.00e+00 1.00e+00f  1
iter    objective    inf_pr   inf_du lg(mu)  ||d||  lg(rg) alpha_du alpha_pr  ls
  50  9.4680165e+07 4.55e-13 1.04e-01  -3.8 1.37e-03   1.9 1.00e+00 1.00e+00f  1
  51  9.4680164e+07 9.09e-13 1.04e-01  -3.8 9.73e-03   1.4 1.00e+00 1.00e+00f  1
  52  9.4680164e+07 9.09e-13 1.04e-01  -3.8 1.54e-03   1.8 1.00e+00 1.00e+00f  1
  53  9.4680164e+07 9.09e-13 1.04e-01  -3.8 1.07e-02   1.4 1.00e+00 1.00e+00f  1
  54  9.4680164e+07 9.09e-13 1.04e-01  -3.8 1.73e-03   1.8 1.00e+00 1.00e+00f  1
  55  9.4680163e+07 1.14e-12 1.03e-01  -3.8 1.26e-02   1.3 1.00e+00 1.00e+00f  1
  56  9.4680163e+07 1.36e-12 1.03e-01  -3.8 1.94e-03   1.7 1.00e+00 1.00e+00f  1
  57  9.4680163e+07 2.27e-13 1.03e-01  -3.8 1.73e-02   1.2 1.00e+00 1.00e+00f  1
  58  9.4680163e+07 2.27e-13 1.03e-01  -3.8 2.18e-03   1.7 1.00e+00 1.00e+00f  1
  59  9.4680162e+07 1.14e-13 1.03e-01  -3.8 6.84e-02   1.2 1.00e+00 3.50e-01f  2
iter    objective    inf_pr   inf_du lg(mu)  ||d||  lg(rg) alpha_du alpha_pr  ls
  60  9.4680162e+07 2.27e-13 1.03e-01  -3.8 2.45e-03   1.6 1.00e+00 1.00e+00f  1
  61  9.4680162e+07 2.27e-13 1.03e-01  -3.8 9.19e-04   2.1 1.00e+00 1.00e+00f  1
  62  9.4680162e+07 2.27e-13 1.03e-01  -3.8 2.75e-03   1.6 1.00e+00 1.00e+00f  1
  63  9.4680162e+07 2.27e-13 1.03e-01  -3.8 1.03e-03   2.0 1.00e+00 1.00e+00f  1
  64  9.4680162e+07 4.55e-13 1.03e-01  -3.8 3.10e-03   1.5 1.00e+00 1.00e+00f  1
  65  9.4680162e+07 4.55e-13 1.03e-01  -3.8 1.16e-03   1.9 1.00e+00 1.00e+00f  1
  66  9.4680161e+07 4.55e-13 1.03e-01  -3.8 3.48e-03   1.5 1.00e+00 1.00e+00f  1
  67  9.4680161e+07 6.82e-13 1.03e-01  -3.8 1.30e-03   1.9 1.00e+00 1.00e+00f  1
  68  9.4680161e+07 9.09e-13 1.03e-01  -3.8 3.91e-03   1.4 1.00e+00 1.00e+00f  1
  69  9.4680161e+07 9.09e-13 1.03e-01  -3.8 1.47e-03   1.8 1.00e+00 1.00e+00f  1
iter    objective    inf_pr   inf_du lg(mu)  ||d||  lg(rg) alpha_du alpha_pr  ls
  70  9.4680161e+07 9.09e-13 1.03e-01  -3.8 4.40e-03   1.4 1.00e+00 1.00e+00f  1
  71  9.4680161e+07 1.14e-12 1.03e-01  -3.8 1.65e-03   1.8 1.00e+00 1.00e+00f  1
  72  9.4680160e+07 4.55e-13 1.03e-01  -3.8 4.94e-03   1.3 1.00e+00 1.00e+00f  1
  73  9.4680160e+07 1.36e-12 1.03e-01  -3.8 1.85e-03   1.7 1.00e+00 1.00e+00f  1
  74  9.4680160e+07 2.27e-13 1.02e-01  -3.8 5.55e-03   1.3 1.00e+00 1.00e+00f  1
  75  9.4680160e+07 2.27e-13 1.02e-01  -3.8 2.08e-03   1.7 1.00e+00 1.00e+00f  1
  76  9.4680160e+07 3.41e-13 1.02e-01  -3.8 6.23e-03   1.2 1.00e+00 1.00e+00f  1
  77  9.4680159e+07 4.55e-13 1.02e-01  -3.8 2.34e-03   1.6 1.00e+00 1.00e+00f  1
  78  9.4680159e+07 4.55e-13 1.02e-01  -3.8 7.00e-03   1.2 1.00e+00 1.00e+00f  1
  79  9.4680159e+07 6.82e-13 1.02e-01  -3.8 2.62e-03   1.6 1.00e+00 1.00e+00f  1
iter    objective    inf_pr   inf_du lg(mu)  ||d||  lg(rg) alpha_du alpha_pr  ls
  80  9.4680158e+07 9.09e-13 1.02e-01  -3.8 7.86e-03   1.1 1.00e+00 1.00e+00f  1
  81  9.4680158e+07 9.09e-13 1.02e-01  -3.8 2.94e-03   1.5 1.00e+00 1.00e+00f  1
  82  9.4680158e+07 1.36e-12 1.02e-01  -3.8 8.82e-03   1.1 1.00e+00 1.00e+00f  1
  83  9.4680158e+07 1.82e-12 1.02e-01  -3.8 3.31e-03   1.5 1.00e+00 1.00e+00f  1
  84  9.4680157e+07 1.14e-13 1.01e-01  -3.8 9.90e-03   1.0 1.00e+00 1.00e+00f  1
  85  9.4680157e+07 2.27e-13 1.01e-01  -3.8 3.71e-03   1.4 1.00e+00 1.00e+00f  1
  86  9.4680156e+07 6.82e-13 1.01e-01  -3.8 1.11e-02   1.0 1.00e+00 1.00e+00f  1
  87  9.4680156e+07 9.09e-13 1.01e-01  -3.8 4.16e-03   1.4 1.00e+00 1.00e+00f  1
  88  9.4680155e+07 1.36e-12 1.01e-01  -3.8 1.24e-02   0.9 1.00e+00 1.00e+00f  1
  89  9.4680155e+07 1.59e-12 1.01e-01  -3.8 4.66e-03   1.3 1.00e+00 1.00e+00f  1
iter    objective    inf_pr   inf_du lg(mu)  ||d||  lg(rg) alpha_du alpha_pr  ls
  90  9.4680154e+07 4.55e-13 1.00e-01  -3.8 1.40e-02   0.9 1.00e+00 1.00e+00f  1
  91  9.4680154e+07 4.55e-13 1.00e-01  -3.8 5.23e-03   1.3 1.00e+00 1.00e+00f  1
  92  9.4680153e+07 1.36e-12 9.99e-02  -3.8 1.56e-02   0.8 1.00e+00 1.00e+00f  1
  93  9.4680153e+07 4.55e-13 9.98e-02  -3.8 5.85e-03   1.2 1.00e+00 1.00e+00f  1
  94  9.4680152e+07 4.55e-13 9.94e-02  -3.8 1.75e-02   0.8 1.00e+00 1.00e+00f  1
  95  9.4680152e+07 4.55e-13 9.93e-02  -3.8 6.55e-03   1.2 1.00e+00 1.00e+00f  1
  96  9.4680152e+07 4.55e-13 9.92e-02  -3.8 2.45e-03   1.6 1.00e+00 1.00e+00f  1
  97  9.4680151e+07 9.09e-13 9.91e-02  -3.8 7.35e-03   1.1 1.00e+00 1.00e+00f  1
  98  9.4680151e+07 9.09e-13 9.90e-02  -3.8 2.75e-03   1.6 1.00e+00 1.00e+00f  1
  99  9.4680151e+07 1.36e-12 9.88e-02  -3.8 8.25e-03   1.1 1.00e+00 1.00e+00f  1
iter    objective    inf_pr   inf_du lg(mu)  ||d||  lg(rg) alpha_du alpha_pr  ls
 100  9.4680150e+07 1.36e-12 9.87e-02  -3.8 3.09e-03   1.5 1.00e+00 1.00e+00f  1
 101  9.4680150e+07 1.82e-12 9.85e-02  -3.8 9.25e-03   1.0 1.00e+00 1.00e+00f  1
 102  9.4680150e+07 1.14e-13 9.84e-02  -3.8 3.47e-03   1.5 1.00e+00 1.00e+00f  1
 103  9.4680149e+07 4.55e-13 9.81e-02  -3.8 1.04e-02   1.0 1.00e+00 1.00e+00f  1
 104  9.4680149e+07 6.82e-13 9.80e-02  -3.8 3.88e-03   1.4 1.00e+00 1.00e+00f  1
 105  9.4680148e+07 1.14e-12 9.77e-02  -3.8 1.16e-02   0.9 1.00e+00 1.00e+00f  1
 106  9.4680148e+07 1.36e-12 9.76e-02  -3.8 4.35e-03   1.4 1.00e+00 1.00e+00f  1
 107  9.4680148e+07 3.41e-13 9.72e-02  -3.8 1.30e-02   0.9 1.00e+00 1.00e+00f  1
 108  9.4680147e+07 2.27e-13 9.70e-02  -3.8 4.86e-03   1.3 1.00e+00 1.00e+00f  1
 109  9.4680147e+07 6.82e-13 9.64e-02  -3.8 1.45e-02   0.8 1.00e+00 1.00e+00f  1
iter    objective    inf_pr   inf_du lg(mu)  ||d||  lg(rg) alpha_du alpha_pr  ls
 110  9.4680146e+07 9.09e-13 9.61e-02  -3.8 5.42e-03   1.2 1.00e+00 1.00e+00f  1
 111  9.4680146e+07 1.14e-12 9.53e-02  -3.8 1.61e-02   0.8 1.00e+00 9.57e-01f  1
 112  9.4680146e+07 2.27e-13 9.87e-02  -3.8 6.26e-03   1.2 1.00e+00 1.00e+00f  1
 113  9.4680145e+07 2.27e-13 9.34e-02  -3.8 1.78e-02   0.7 1.00e+00 1.00e+00f  1
 114  9.4680145e+07 9.09e-13 9.15e-02  -3.8 6.53e-03   1.1 1.00e+00 1.00e+00f  1
 115  9.4680144e+07 1.36e-12 8.53e-02  -3.8 1.83e-02   0.7 1.00e+00 1.00e+00f  1
 116  9.4680144e+07 1.59e-12 4.06e-02  -3.8 3.26e-03   1.1 1.00e+00 5.00e-01f  2
 117  9.4680144e+07 6.82e-13 3.36e+03  -5.7 6.58e-03   0.6 1.00e+00 6.64e-01f  1
 118  9.4680144e+07 1.36e-12 2.73e-02  -5.7 2.47e-03   1.0 1.00e+00 1.00e+00f  1
 119  9.4680144e+07 9.09e-13 2.69e-02  -5.7 7.30e-03   0.6 1.00e+00 1.00e+00f  1
iter    objective    inf_pr   inf_du lg(mu)  ||d||  lg(rg) alpha_du alpha_pr  ls
 120  9.4680143e+07 9.09e-13 2.68e-02  -5.7 2.73e-03   1.0 1.00e+00 1.00e+00f  1
 121  9.4680143e+07 9.09e-13 2.64e-02  -5.7 8.06e-03   0.5 1.00e+00 1.00e+00f  1
 122  9.4680143e+07 9.09e-13 2.63e-02  -5.7 3.00e-03   0.9 1.00e+00 1.00e+00f  1
 123  9.4680143e+07 9.09e-13 2.58e-02  -5.7 8.86e-03   0.5 1.00e+00 1.00e+00f  1
 124  9.4680143e+07 9.09e-13 2.57e-02  -5.7 3.30e-03   0.9 1.00e+00 1.00e+00f  1
 125  9.4680143e+07 9.09e-13 2.52e-02  -5.7 9.72e-03   0.4 1.00e+00 1.00e+00f  1
 126  9.4680143e+07 9.09e-13 2.50e-02  -5.7 3.62e-03   0.8 1.00e+00 1.00e+00f  1
 127  9.4680143e+07 9.09e-13 2.45e-02  -5.7 1.06e-02   0.4 1.00e+00 1.00e+00f  1
 128  9.4680143e+07 9.09e-13 2.43e-02  -5.7 3.96e-03   0.8 1.00e+00 1.00e+00f  1
 129  9.4680143e+07 9.09e-13 2.42e-02  -5.7 1.48e-03   1.2 1.00e+00 1.00e+00f  1
iter    objective    inf_pr   inf_du lg(mu)  ||d||  lg(rg) alpha_du alpha_pr  ls
 130  9.4680143e+07 9.09e-13 2.40e-02  -5.7 4.40e-03   0.7 1.00e+00 1.00e+00f  1
 131  9.4680143e+07 9.09e-13 2.39e-02  -5.7 1.65e-03   1.2 1.00e+00 1.00e+00f  1
 132  9.4680143e+07 9.09e-13 2.37e-02  -5.7 4.89e-03   0.7 1.00e+00 1.00e+00f  1
 133  9.4680142e+07 9.09e-13 2.36e-02  -5.7 1.83e-03   1.1 1.00e+00 1.00e+00f  1
 134  9.4680142e+07 9.09e-13 2.34e-02  -5.7 5.42e-03   0.6 1.00e+00 1.00e+00f  1
 135  9.4680142e+07 9.09e-13 2.33e-02  -5.7 2.02e-03   1.1 1.00e+00 1.00e+00f  1
 136  9.4680142e+07 9.09e-13 2.30e-02  -5.7 5.99e-03   0.6 1.00e+00 1.00e+00f  1
 137  9.4680142e+07 9.09e-13 2.29e-02  -5.7 2.24e-03   1.0 1.00e+00 1.00e+00f  1
 138  9.4680142e+07 9.09e-13 2.25e-02  -5.7 6.62e-03   0.5 1.00e+00 1.00e+00f  1
 139  9.4680142e+07 9.09e-13 2.24e-02  -5.7 2.47e-03   1.0 1.00e+00 1.00e+00f  1
iter    objective    inf_pr   inf_du lg(mu)  ||d||  lg(rg) alpha_du alpha_pr  ls
 140  9.4680142e+07 9.09e-13 2.21e-02  -5.7 7.29e-03   0.5 1.00e+00 1.00e+00f  1
 141  9.4680142e+07 9.09e-13 2.19e-02  -5.7 2.72e-03   0.9 1.00e+00 1.00e+00f  1
 142  9.4680142e+07 9.09e-13 2.16e-02  -5.7 8.01e-03   0.4 1.00e+00 1.00e+00f  1
 143  9.4680142e+07 9.09e-13 2.14e-02  -5.7 2.98e-03   0.9 1.00e+00 1.00e+00f  1
 144  9.4680142e+07 9.09e-13 2.10e-02  -5.7 8.77e-03   0.4 1.00e+00 1.00e+00f  1
 145  9.4680142e+07 1.14e-12 2.08e-02  -5.7 3.26e-03   0.8 1.00e+00 1.00e+00f  1
 146  9.4680142e+07 9.09e-13 2.04e-02  -5.7 9.58e-03   0.3 1.00e+00 1.00e+00f  1
 147  9.4680142e+07 1.14e-12 2.02e-02  -5.7 3.56e-03   0.8 1.00e+00 1.00e+00f  1
 148  9.4680141e+07 6.82e-13 1.97e-02  -5.7 1.04e-02   0.3 1.00e+00 1.00e+00f  1
 149  9.4680141e+07 1.14e-12 1.95e-02  -5.7 3.87e-03   0.7 1.00e+00 1.00e+00f  1
iter    objective    inf_pr   inf_du lg(mu)  ||d||  lg(rg) alpha_du alpha_pr  ls
 150  9.4680141e+07 6.82e-13 1.90e-02  -5.7 1.13e-02   0.2 1.00e+00 1.00e+00f  1
 151  9.4680141e+07 1.14e-12 1.88e-02  -5.7 4.19e-03   0.7 1.00e+00 1.00e+00f  1
 152  9.4680141e+07 6.82e-13 1.82e-02  -5.7 1.22e-02   0.2 1.00e+00 1.00e+00f  1
 153  9.4680141e+07 1.14e-12 1.80e-02  -5.7 4.51e-03   0.6 1.00e+00 1.00e+00f  1
 154  9.4680141e+07 6.82e-13 1.73e-02  -5.7 1.31e-02   0.1 1.00e+00 1.00e+00f  1
 155  9.4680141e+07 1.14e-12 1.71e-02  -5.7 4.83e-03   0.5 1.00e+00 1.00e+00f  1
 156  9.4680141e+07 6.82e-13 1.64e-02  -5.7 1.39e-02   0.1 1.00e+00 1.00e+00f  1
 157  9.4680141e+07 1.36e-12 1.62e-02  -5.7 5.15e-03   0.5 1.00e+00 1.00e+00f  1
 158  9.4680141e+07 6.82e-13 1.55e-02  -5.7 1.48e-02   0.0 1.00e+00 1.00e+00f  1
 159  9.4680141e+07 1.36e-12 1.52e-02  -5.7 5.45e-03   0.4 1.00e+00 1.00e+00f  1
iter    objective    inf_pr   inf_du lg(mu)  ||d||  lg(rg) alpha_du alpha_pr  ls
 160  9.4680140e+07 4.55e-13 1.45e-02  -5.7 1.55e-02  -0.0 1.00e+00 1.00e+00f  1
 161  9.4680140e+07 1.36e-12 1.42e-02  -5.7 5.72e-03   0.4 1.00e+00 1.00e+00f  1
 162  9.4680140e+07 4.55e-13 1.35e-02  -5.7 1.62e-02  -0.1 1.00e+00 1.00e+00f  1
 163  9.4680140e+07 1.36e-12 1.32e-02  -5.7 5.96e-03   0.3 1.00e+00 1.00e+00f  1
 164  9.4680140e+07 4.55e-13 1.24e-02  -5.7 1.68e-02  -0.1 1.00e+00 1.00e+00f  1
 165  9.4680140e+07 1.36e-12 1.21e-02  -5.7 6.16e-03   0.3 1.00e+00 1.00e+00f  1
 166  9.4680140e+07 4.55e-13 1.13e-02  -5.7 1.73e-02  -0.2 1.00e+00 1.00e+00f  1
 167  9.4680140e+07 4.55e-13 2.68e-02  -5.7 4.58e-02  -0.7 1.00e+00 6.01e-01f  1
 168  9.4680139e+07 4.55e-13 2.78e-01  -5.7 8.52e-02  -1.1 1.52e-02 1.00e+00f  1
 169  9.4680139e+07 3.41e-13 1.70e-01  -5.7 2.66e-02  -0.7 1.00e+00 4.02e-01f  1
iter    objective    inf_pr   inf_du lg(mu)  ||d||  lg(rg) alpha_du alpha_pr  ls
 170  9.4680139e+07 3.41e-13 1.32e-01  -5.7 7.45e-02  -1.2 1.05e-02 1.00e+00f  1
 171  9.4680139e+07 1.59e-12 4.84e-03  -5.7 3.51e-03   0.1 1.00e+00 1.00e+00f  1
 172  9.4680139e+07 1.59e-12 4.85e-03  -5.7 2.98e-02  -0.3 1.00e+00 2.66e-01f  1
 173  9.4680139e+07 2.27e-13 4.89e-03  -5.7 3.20e-02  -0.8 1.72e-01 6.07e-01f  1
 174  9.4680139e+07 2.27e-13 3.73e-02  -5.7 1.14e-02  -0.4 1.00e+00 2.95e-01f  1
 175  9.4680139e+07 3.41e-13 4.55e-03  -5.7 3.34e-02  -0.9 1.00e+00 1.00e+00f  1
 176  9.4680138e+07 1.59e-12 4.41e-03  -5.7 9.71e-02  -1.3 1.00e+00 1.00e+00f  1
 177  9.4680138e+07 3.41e-13 4.43e-03  -5.7 2.93e-01  -1.8 1.00e+00 1.00e+00f  1
 178  9.4680136e+07 1.59e-12 4.49e-03  -5.7 8.90e-01  -2.3 1.00e+00 1.00e+00f  1
 179  9.4680135e+07 1.59e-12 7.30e-03  -5.7 2.78e+00  -2.8 1.00e+00 3.30e-01f  1
iter    objective    inf_pr   inf_du lg(mu)  ||d||  lg(rg) alpha_du alpha_pr  ls
 180  9.4680131e+07 1.59e-12 1.48e-02  -5.7 9.26e+00  -3.3 1.00e+00 3.18e-01f  1
 181  9.4680131e+07 1.59e-12 8.50e-03  -5.7 3.10e+00  -3.7 1.00e+00 9.90e-02f  4
 182  9.4680131e+07 3.41e-13 1.49e-02  -5.7 8.37e+00  -4.2 1.00e+00 3.93e-01f  1
 183  9.4680129e+07 1.82e-12 1.32e-01  -5.7 1.88e+01  -4.7 1.00e+00 1.00e+00f  1
 184  9.4680127e+07 1.82e-12 4.20e-02  -5.7 2.61e+01  -5.2 1.00e+00 7.58e-01f  1
 185  9.4680127e+07 1.82e-12 3.34e-02  -5.7 9.62e+00  -5.6 1.00e+00 3.91e-03f  9
 186  9.4680127e+07 1.59e-12 6.03e-02  -5.7 2.50e+00  -6.1 1.00e+00 1.00e+00f  1
 187  9.4680127e+07 1.59e-12 5.93e-02  -5.7 2.88e+00  -3.9 1.13e-01 1.54e-02f  2
 188  9.4680127e+07 1.14e-13 5.57e-02  -5.7 4.13e+00    -  1.00e+00 1.00e+00f  1
 189  9.4680127e+07 3.41e-13 4.05e-06  -5.7 7.43e-02  -4.4 1.00e+00 1.00e+00f  1
iter    objective    inf_pr   inf_du lg(mu)  ||d||  lg(rg) alpha_du alpha_pr  ls
 190  9.4680127e+07 1.14e-12 1.64e+01  -8.6 1.16e-01    -  8.81e-01 1.00e+00f  1
 191  9.4680127e+07 6.82e-13 4.86e+00  -8.6 5.36e-01    -  8.57e-01 1.00e+00h  1
 192  9.4680127e+07 6.82e-13 7.62e-06  -8.6 1.38e-02  -4.8 1.00e+00 1.00e+00h  1
 193  9.4680127e+07 6.82e-13 3.52e-02  -8.6 1.52e+01    -  6.64e-01 5.44e-02h  4
 194  9.4680127e+07 6.82e-13 6.08e-06  -8.6 1.23e-02  -5.3 1.00e+00 1.00e+00h  1
 195  9.4680127e+07 6.82e-13 2.42e-02  -8.6 1.40e+01    -  8.23e-01 4.66e-02h  5
 196  9.4680127e+07 6.82e-13 2.71e-06  -8.6 8.17e-03  -5.8 1.00e+00 1.00e+00h  1
 197  9.4680127e+07 6.82e-13 6.51e-02  -8.6 1.38e+01    -  9.14e-01 8.89e-01h  1
 198  9.4680127e+07 6.82e-13 1.70e-04  -8.6 6.14e-01  -3.6 1.00e+00 1.00e+00f  1
 199  9.4680127e+07 6.82e-13 1.24e-07  -8.6 1.17e-03  -4.0 1.00e+00 1.00e+00h  1

Number of Iterations....: 199

                                   (scaled)                 (unscaled)
Objective...............:   4.1151075239266542e+05    9.4680127146164224e+07
Dual infeasibility......:   1.2401500512583546e-07    2.8533291985873244e-05
Constraint violation....:   1.1368683772161603e-13    6.8212102632969618e-13
Complementarity.........:   4.6556592452740494e-09    1.0711710610933201e-06
Overall NLP error.......:   3.8914009272539099e-09    2.8533291985873244e-05


Number of objective function evaluations             = 230
Number of objective gradient evaluations             = 200
Number of equality constraint evaluations            = 230
Number of inequality constraint evaluations          = 0
Number of equality constraint Jacobian evaluations   = 200
Number of inequality constraint Jacobian evaluations = 0
Number of Lagrangian Hessian evaluations             = 199
Total CPU secs in IPOPT (w/o function evaluations)   =      0.356
Total CPU secs in NLP function evaluations           =      0.037

EXIT: Optimal Solution Found.

************************ CUTEst statistics ************************


 Package used            :  IPOPT
 Problem                 :  AVION2    
 # variables             =              49
 # constraints           =              15
 # objective functions   =        0.4310000E+03
 # objective gradients   =        0.2010000E+03
 # objective Hessians    =        0.2000000E+03
 # Hessian-vector prdct  =        0.0000000E+00
 # constraints functions =        0.4320000E+03
 # constraints gradients =        0.2020000E+03
 # constraints Hessians  =        0.2000000E+03
 Exit code               =               0
 Final f                 =        9.4680127146164224D+07
 Bounds feasibility      =        4.9999965767710819D-06
 Set up time             =            0.00 seconds
 Solve time              =            0.91 seconds


******************************************************************

